(declare-const in Int)
(declare-const in0 Int)
(declare-const in2 Int)
(declare-const in1 Int)
(declare-const in4 Int)
(declare-const in3 Int)
(declare-const in6 Int)
(declare-const in5 Int)
(declare-const in8 Int)
(declare-const in7 Int)
(declare-const in11 Int)
(declare-const in10 Int)
(declare-const in9 Int)
(declare-const in13 Int)
(declare-const in12 Int)
(declare-const in15 Int)
(declare-const in14 Int)

(assert (and (and (and (and (and (and (and (and (and (and (and (and (and (and (and (and (and (and (and (and (and (and (and (and (and (and (and (and (and (and (and (and (and (and (and (and (and (and (and (and (and (and (and (and (and (and (and (and (and (and (and (and (and (and (and (and (and (and (and (and (and (and (and (and (and (and (and (and (and (and (and (and (and (and (and (and (and (and (and (and (and (and (and (and (and (and (and (and (and (and (and (and (and (and (and (and (and (and (and (and (and (and (and (and (and (and (and (and (and (and (and (and (and (and (and (and (and (and (and (and (and (and (and (and (and (and (and (and (and (and (and (and (and (and (and (and (and (and (and (and (and (and (and (and (and (and (and (and (and (and (and (and (and (and (and (and (and (and (and (and (and (and (and (and (and (and (and (and (and (and (and (and (and (and (and (and (and (and (and (and (and (and (and (and (and (and (and (and (and (and (and (and (and (and (and (and (and (and (and (and (and (and (and (and (and (and (and (and (and (and (and (and (and (and (and (and (and (and (and (and (and (and (and (and (and (and (and (and (and (and (and (and (and (and (and (and (and (and (and (and (and (and (and (and (and (and (and (and (and (and (and (and (and (and (and (and (and (and (and (and (and (and (and (and (and (and (and (and (and (and (and  ( >=  in0 in1)  ( >  in0 in1))  ( >=  in0 in2))  ( >  in0 in2))  ( >=  in1 in2))  ( >  in1 in2))  ( >=  in0 in3))  ( >  in0 in3))  ( >=  in1 in3))  ( >  in1 in3))  ( >=  in2 in3))  ( >  in2 in3))  ( >=  in0 in4))  ( >  in0 in4))  ( >=  in1 in4))  ( >  in1 in4))  ( >=  in2 in4))  ( >  in2 in4))  ( >=  in3 in4))  ( >  in3 in4))  ( >=  in0 in5))  ( >  in0 in5))  ( >=  in1 in5))  ( >  in1 in5))  ( >=  in2 in5))  ( >  in2 in5))  ( >=  in3 in5))  ( >  in3 in5))  ( >=  in4 in5))  ( >  in4 in5))  ( >=  in0 in6))  ( >  in0 in6))  ( >=  in1 in6))  ( >  in1 in6))  ( >=  in2 in6))  ( >  in2 in6))  ( >=  in3 in6))  ( >  in3 in6))  ( >=  in4 in6))  ( >  in4 in6))  ( >=  in5 in6))  ( >  in5 in6))  ( >=  in0 in7))  ( >  in0 in7))  ( >=  in1 in7))  ( >  in1 in7))  ( >=  in2 in7))  ( >  in2 in7))  ( >=  in3 in7))  ( >  in3 in7))  ( >=  in4 in7))  ( >  in4 in7))  ( >=  in5 in7))  ( >  in5 in7))  ( >=  in6 in7))  ( >  in6 in7))  ( >=  in0 in8))  ( >  in0 in8))  ( >=  in1 in8))  ( >  in1 in8))  ( >=  in2 in8))  ( >  in2 in8))  ( >=  in3 in8))  ( >  in3 in8))  ( >=  in4 in8))  ( >  in4 in8))  ( >=  in5 in8))  ( >  in5 in8))  ( >=  in6 in8))  ( >  in6 in8))  ( >=  in7 in8))  ( >  in7 in8))  ( >=  in0 in9))  ( >  in0 in9))  ( >=  in1 in9))  ( >  in1 in9))  ( >=  in2 in9))  ( >  in2 in9))  ( >=  in3 in9))  ( >  in3 in9))  ( >=  in4 in9))  ( >  in4 in9))  ( >=  in5 in9))  ( >  in5 in9))  ( >=  in6 in9))  ( >  in6 in9))  ( >=  in7 in9))  ( >  in7 in9))  ( >=  in8 in9))  ( >  in8 in9))  ( >=  in0 in10))  ( >  in0 in10))  ( >=  in1 in10))  ( >  in1 in10))  ( >=  in2 in10))  ( >  in2 in10))  ( >=  in3 in10))  ( >  in3 in10))  ( >=  in4 in10))  ( >  in4 in10))  ( >=  in5 in10))  ( >  in5 in10))  ( >=  in6 in10))  ( >  in6 in10))  ( >=  in7 in10))  ( >  in7 in10))  ( >=  in8 in10))  ( >  in8 in10))  ( >=  in9 in10))  ( >  in9 in10))  ( >=  in0 in11))  ( >  in0 in11))  ( >=  in1 in11))  ( >  in1 in11))  ( >=  in2 in11))  ( >  in2 in11))  ( >=  in3 in11))  ( >  in3 in11))  ( >=  in4 in11))  ( >  in4 in11))  ( >=  in5 in11))  ( >  in5 in11))  ( >=  in6 in11))  ( >  in6 in11))  ( >=  in7 in11))  ( >  in7 in11))  ( >=  in8 in11))  ( >  in8 in11))  ( >=  in9 in11))  ( >  in9 in11))  ( >=  in10 in11))  ( >  in10 in11))  ( >=  in0 in12))  ( >  in0 in12))  ( >=  in1 in12))  ( >  in1 in12))  ( >=  in2 in12))  ( >  in2 in12))  ( >=  in3 in12))  ( >  in3 in12))  ( >=  in4 in12))  ( >  in4 in12))  ( >=  in5 in12))  ( >  in5 in12))  ( >=  in6 in12))  ( >  in6 in12))  ( >=  in7 in12))  ( >  in7 in12))  ( >=  in8 in12))  ( >  in8 in12))  ( >=  in9 in12))  ( >  in9 in12))  ( >=  in10 in12))  ( >  in10 in12))  ( >=  in11 in12))  ( >  in11 in12))  ( >=  in0 in13))  ( >  in0 in13))  ( >=  in1 in13))  ( >  in1 in13))  ( >=  in2 in13))  ( >  in2 in13))  ( >=  in3 in13))  ( >  in3 in13))  ( >=  in4 in13))  ( >  in4 in13))  ( >=  in5 in13))  ( >  in5 in13))  ( >=  in6 in13))  ( >  in6 in13))  ( >=  in7 in13))  ( >  in7 in13))  ( >=  in8 in13))  ( >  in8 in13))  ( >=  in9 in13))  ( >  in9 in13))  ( >=  in10 in13))  ( >  in10 in13))  ( >=  in11 in13))  ( >  in11 in13))  ( >=  in12 in13))  ( >  in12 in13))  ( >=  in0 in14))  ( >  in0 in14))  ( >=  in1 in14))  ( >  in1 in14))  ( >=  in2 in14))  ( >  in2 in14))  ( >=  in3 in14))  ( >  in3 in14))  ( >=  in4 in14))  ( >  in4 in14))  ( >=  in5 in14))  ( >  in5 in14))  ( >=  in6 in14))  ( >  in6 in14))  ( >=  in7 in14))  ( >  in7 in14))  ( >=  in8 in14))  ( >  in8 in14))  ( >=  in9 in14))  ( >  in9 in14))  ( >=  in10 in14))  ( >  in10 in14))  ( >=  in11 in14))  ( >  in11 in14))  ( >=  in12 in14))  ( >  in12 in14))  ( >=  in13 in14))  ( >  in13 in14))  ( >=  in0 in15))  ( >  in0 in15))  ( >=  in1 in15))  ( >  in1 in15))  ( >=  in2 in15))  ( >  in2 in15))  ( >=  in3 in15))  ( >  in3 in15))  ( >=  in4 in15))  ( >  in4 in15))  ( >=  in5 in15))  ( >  in5 in15))  ( >=  in6 in15))  ( >  in6 in15))  ( >=  in7 in15))  ( >  in7 in15))  ( >=  in8 in15))  ( >  in8 in15))  ( >=  in9 in15))  ( >  in9 in15))  ( >=  in10 in15))  ( >  in10 in15))  ( >=  in11 in15))  ( >  in11 in15))  ( >=  in12 in15))  ( >  in12 in15))  ( >=  in13 in15))  ( >  in13 in15))  ( >=  in14 in15))  ( >  in14 in15)) (not ( = in0 in)))  ( >=  in0 in)) (not ( = in1 in)))  ( >=  in1 in)) (not ( = in2 in)))  ( >=  in2 in)) (not ( = in3 in)))  ( >=  in3 in)) (not ( = in4 in)))  ( >=  in4 in)) (not ( = in5 in)))  ( >=  in5 in)) (not ( = in6 in)))  ( >=  in6 in)) (not ( = in7 in)))  ( >=  in7 in)) (not ( = in8 in)))  ( >=  in8 in)) (not ( = in9 in)))  ( >=  in9 in)) (not ( = in10 in)))  ( >=  in10 in)) (not ( = in11 in)))  ( >=  in11 in)) (not ( = in12 in)))  ( >=  in12 in)) (not ( = in13 in)))  ( >=  in13 in)) (not ( = in14 in)))  ( >=  in14 in)) (not ( = in15 in)))  ( >=  in15 in)))

(check-sat)
(get-model)